Welcome to the CBC MILP Solver 
Version: Trunk
Build Date: Apr 16 2020 

Starting solution of the Linear programming relaxation problem using Primal Simplex

Using Python-MIP package version 1.8.1
Machines:  3 Jobs:  3
Order: 
Job  0 : machine 1 ( 7 ) machine 2 ( 7 ) machine 0 ( 1 ) 
Job  1 : machine 1 ( 4 ) machine 0 ( 3 ) machine 2 ( 7 ) 
Job  2 : machine 1 ( 7 ) machine 2 ( 6 ) machine 0 ( 2 ) 
K:  33
Job  0 , e: machine  0 ( 14 ) machine  1 ( 0 ) machine  2 ( 7 ) 
Job  1 , e: machine  0 ( 4 ) machine  1 ( 0 ) machine  2 ( 7 ) 
Job  2 , e: machine  0 ( 13 ) machine  1 ( 0 ) machine  2 ( 7 ) 
Job  0 , f: machine  0 ( 0 ) machine  1 ( 8 ) machine  2 ( 1 ) 
Job  1 , f: machine  0 ( 7 ) machine  1 ( 10 ) machine  2 ( 0 ) 
Job  2 , f: machine  0 ( 0 ) machine  1 ( 8 ) machine  2 ( 2 ) 
EST and LST:
Job: 0 Machine: 0 EST: 14 LST: 32
Job: 0 Machine: 1 EST: 0 LST: 18
Job: 0 Machine: 2 EST: 7 LST: 25
Job: 1 Machine: 0 EST: 4 LST: 23
Job: 1 Machine: 1 EST: 0 LST: 19
Job: 1 Machine: 2 EST: 7 LST: 26
Job: 2 Machine: 0 EST: 13 LST: 31
Job: 2 Machine: 1 EST: 0 LST: 18
Job: 2 Machine: 2 EST: 7 LST: 25
Order:
Job: 0 Machine: 0 = 2 
Job: 0 Machine: 1 = 0 
Job: 0 Machine: 2 = 1 
Job: 1 Machine: 0 = 1 
Job: 1 Machine: 1 = 0 
Job: 1 Machine: 2 = 2 
Job: 2 Machine: 0 = 2 
Job: 2 Machine: 1 = 0 
Job: 2 Machine: 2 = 1 
Distances:
Job 0, Machine 1 -> Machine 2: distance 7
Job 0, Machine 1 -> Machine 0: distance 14
Job 0, Machine 2 -> Machine 0: distance 7
Job 1, Machine 1 -> Machine 0: distance 4
Job 1, Machine 1 -> Machine 2: distance 7
Job 1, Machine 0 -> Machine 2: distance 3
Job 2, Machine 1 -> Machine 2: distance 7
Job 2, Machine 1 -> Machine 0: distance 13
Job 2, Machine 2 -> Machine 0: distance 6
McCormic linearization
14.0 13.0 2
0.0 0.0 4
0.0 0.0 7
0.0 0.0 7
7.0 7.0 7
7.0 7.0 6
7.0 7.0 6
[(0, 1), (1, 2), (0, 0), (0, 2), (2, 1), (2, 0), (2, 2), (1, 1)]
obj:  0.0
solutions:  1
+ 0.14285714285714285x(0,1) + 0.14285714285714285x(2,1) 
C:  18.5
x(0,0) = 17.50	 x(0,1) = 3.50	 x(0,2) = 10.50	 
x(1,0) = 8.50	 x(1,1) = 4.50	 x(1,2) = 11.50	 
x(2,0) = 16.50	 x(2,1) = 3.50	 x(2,2) = 10.50	 
y(0,1,0) = 0.00	 y(1,0,0) = 1.00	 
y(0,2,0) = 0.90	 y(2,0,0) = 0.10	 
y(1,2,0) = 0.59	 y(2,1,0) = 0.41	 
y(0,1,1) = 0.22	 y(1,0,1) = 0.78	 
y(0,2,1) = 0.50	 y(2,0,1) = 0.50	 
y(1,2,1) = 0.36	 y(2,1,1) = 0.64	 
y(0,1,2) = 0.50	 y(1,0,2) = 0.50	 
y(0,2,2) = 0.42	 y(2,0,2) = 0.58	 
y(1,2,2) = 0.49	 y(2,1,2) = 0.51	 
17.5 16.5 2
3.5000000000000018 3.499999999999996 7
4.499999999999999 3.499999999999996 7
10.500000000000002 10.499999999999998 6
11.5 10.499999999999998 6
obj:  0.6380952380952379
solutions:  1
+ 0.06666666666666668x(0,1) + 0.06666666666666667x(2,1) + 0.0380952380952381x(1,1) 
[(0, 1), (1, 2), (0, 0), (0, 2), (2, 1), (2, 0), (2, 2), (1, 1)]
cliques:  1 mip: 32
C:  21.546296296296298
x(0,0) = 20.55	 x(0,1) = 6.55	 x(0,2) = 13.55	 
x(1,0) = 10.05	 x(1,1) = 6.05	 x(1,2) = 13.05	 
x(2,0) = 18.55	 x(2,1) = 5.00	 x(2,2) = 12.00	 
y(0,1,0) = 0.00	 y(1,0,0) = 1.00	 
y(0,2,0) = 0.00	 y(2,0,0) = 1.00	 
y(1,2,0) = 0.53	 y(2,1,0) = 0.47	 
y(0,1,1) = 0.70	 y(1,0,1) = 0.30	 
y(0,2,1) = 0.22	 y(2,0,1) = 0.78	 
y(1,2,1) = 0.24	 y(2,1,1) = 0.76	 
y(0,1,2) = 0.25	 y(1,0,2) = 0.75	 
y(0,2,2) = 0.19	 y(2,0,2) = 0.81	 
y(1,2,2) = 0.69	 y(2,1,2) = 0.31	 
6.546296296296293 6.0462962962963 4
6.546296296296293 4.998677248677248 7
6.0462962962963 4.998677248677248 7
13.546296296296296 13.0462962962963 7
13.546296296296296 11.998677248677247 6
13.0462962962963 11.998677248677247 6
obj:  0.9455685408066363
solutions:  1
+ 0.025641025641025657x(1,2) + 0.021978021978021987x(2,2) + 0.025641025641025637x(0,2) 
[(0, 1), (1, 2), (2, 1), (1, 1), (2, 2), (0, 2)]
cliques:  1 mip: 64
C:  22.836784409256843
x(0,0) = 21.84	 x(0,1) = 7.84	 x(0,2) = 14.84	 
x(1,0) = 12.84	 x(1,1) = 3.84	 x(1,2) = 15.84	 
x(2,0) = 19.84	 x(2,1) = 4.97	 x(2,2) = 11.97	 
y(0,1,0) = 0.00	 y(1,0,0) = 1.00	 
y(0,2,0) = 0.00	 y(2,0,0) = 1.00	 
y(1,2,0) = 0.63	 y(2,1,0) = 0.37	 
y(0,1,1) = 0.00	 y(1,0,1) = 1.00	 
y(0,2,1) = 0.61	 y(2,0,1) = 0.39	 
y(1,2,1) = 0.64	 y(2,1,1) = 0.36	 
y(0,1,2) = 0.46	 y(1,0,2) = 0.54	 
y(0,2,2) = 0.52	 y(2,0,2) = 0.48	 
y(1,2,2) = 0.54	 y(2,1,2) = 0.46	 
7.836784409256842 3.8367844092584034 4
7.836784409256842 4.970767356881211 7
14.836784409256849 11.970767356881211 6
15.836784409256843 11.970767356881211 6
obj:  1.0000000000000002
erro
[(0, 1), (1, 2), (2, 1), (1, 1), (2, 2), (0, 2)]
cliques:  0 mip: 55
C:  24.191998856015392
x(0,0) = 23.19	 x(0,1) = 8.71	 x(0,2) = 15.71	 
x(1,0) = 14.19	 x(1,1) = 4.93	 x(1,2) = 17.19	 
x(2,0) = 16.47	 x(2,1) = 3.47	 x(2,2) = 10.47	 
y(0,1,0) = 0.00	 y(1,0,0) = 1.00	 
y(0,2,0) = 0.00	 y(2,0,0) = 1.00	 
y(1,2,0) = 0.37	 y(2,1,0) = 0.63	 
y(0,1,1) = 0.08	 y(1,0,1) = 0.92	 
y(0,2,1) = 0.07	 y(2,0,1) = 0.93	 
y(1,2,1) = 0.22	 y(2,1,1) = 0.78	 
y(0,1,2) = 0.78	 y(1,0,2) = 0.22	 
y(0,2,2) = 0.03	 y(2,0,2) = 0.97	 
y(1,2,2) = 0.22	 y(2,1,2) = 0.78	 
8.710985465611376 4.930564954867226 4
8.710985465611376 3.471548845893053 7
4.930564954867226 3.471548845893053 7
15.710985465611376 10.471548845893054 6
obj:  0.9999999999999992
erro
[(0, 1), (1, 2), (0, 2), (2, 1), (2, 0), (2, 2), (1, 0), (1, 1)]
cliques:  0 mip: 80
C:  24.999999999999996
x(0,0) = 24.00	 x(0,1) = 4.37	 x(0,2) = 12.52	 
x(1,0) = 15.00	 x(1,1) = 10.51	 x(1,2) = 18.00	 
x(2,0) = 17.63	 x(2,1) = 4.63	 x(2,2) = 11.63	 
y(0,1,0) = 0.00	 y(1,0,0) = 1.00	 
y(0,2,0) = 0.00	 y(2,0,0) = 1.00	 
y(1,2,0) = 0.16	 y(2,1,0) = 0.84	 
y(0,1,1) = 0.94	 y(1,0,1) = 0.06	 
y(0,2,1) = 0.43	 y(2,0,1) = 0.57	 
y(1,2,1) = 0.16	 y(2,1,1) = 0.84	 
y(0,1,2) = 0.94	 y(1,0,2) = 0.06	 
y(0,2,2) = 0.21	 y(2,0,2) = 0.79	 
y(1,2,2) = 0.06	 y(2,1,2) = 0.94	 
10.51203767584157 4.627149584971703 7
12.524882262995053 11.627149584971702 6
obj:  0.9999999999999998
erro
[(0, 1), (1, 2), (0, 2), (2, 1), (2, 0), (2, 2), (1, 0), (1, 1)]
cliques:  0 mip: 75
C:  24.999999999999996
x(0,0) = 24.00	 x(0,1) = 5.75	 x(0,2) = 17.00	 
x(1,0) = 12.60	 x(1,1) = 8.60	 x(1,2) = 18.00	 
x(2,0) = 22.00	 x(2,1) = 5.21	 x(2,2) = 12.21	 
y(0,1,0) = 0.00	 y(1,0,0) = 1.00	 
y(0,2,0) = 0.00	 y(2,0,0) = 1.00	 
y(1,2,0) = 0.73	 y(2,1,0) = 0.27	 
y(0,1,1) = 0.71	 y(1,0,1) = 0.29	 
y(0,2,1) = 0.47	 y(2,0,1) = 0.53	 
y(1,2,1) = 0.68	 y(2,1,1) = 0.32	 
y(0,1,2) = 0.70	 y(1,0,2) = 0.30	 
y(0,2,2) = 0.17	 y(2,0,2) = 0.83	 
y(1,2,2) = 0.04	 y(2,1,2) = 0.96	 
5.750120621760065 5.20843300962683 7
8.602226518481496 5.20843300962683 7
16.999999999999996 12.208433009626832 6
18.0 12.208433009626832 6
obj:  1.0582741094631833
erro
[(0, 1), (1, 2), (2, 1), (1, 1), (2, 2), (0, 2)]
cliques:  0 mip: 63
C:  25.0
x(0,0) = 23.13	 x(0,1) = 5.77	 x(0,2) = 16.13	 
x(1,0) = 12.63	 x(1,1) = 8.63	 x(1,2) = 18.00	 
x(2,0) = 22.09	 x(2,1) = 5.17	 x(2,2) = 12.17	 
y(0,1,0) = 0.00	 y(1,0,0) = 1.00	 
y(0,2,0) = 0.43	 y(2,0,0) = 0.57	 
y(1,2,0) = 0.73	 y(2,1,0) = 0.27	 
y(0,1,1) = 0.70	 y(1,0,1) = 0.30	 
y(0,2,1) = 0.47	 y(2,0,1) = 0.53	 
y(1,2,1) = 0.68	 y(2,1,1) = 0.32	 
y(0,1,2) = 0.70	 y(1,0,2) = 0.30	 
y(0,2,2) = 0.17	 y(2,0,2) = 0.83	 
y(1,2,2) = 0.03	 y(2,1,2) = 0.97	 
23.13407186134996 22.088543297062458 2
5.774634660959538 5.166492128486067 7
8.63382045205396 5.166492128486067 7
16.13407186134996 12.166492128486064 6
18.000000000000007 12.166492128486064 6
obj:  1.0583158984222387
erro
[(0, 1), (1, 2), (0, 0), (0, 2), (2, 1), (2, 0), (2, 2), (1, 1)]
cliques:  0 mip: 75
C:  25.000000000000004
x(0,0) = 24.00	 x(0,1) = 8.61	 x(0,2) = 17.00	 
x(1,0) = 8.71	 x(1,1) = 4.71	 x(1,2) = 18.00	 
x(2,0) = 20.07	 x(2,1) = 3.70	 x(2,2) = 14.07	 
y(0,1,0) = 0.00	 y(1,0,0) = 1.00	 
y(0,2,0) = 0.00	 y(2,0,0) = 1.00	 
y(1,2,0) = 0.75	 y(2,1,0) = 0.25	 
y(0,1,1) = 0.23	 y(1,0,1) = 0.77	 
y(0,2,1) = 0.08	 y(2,0,1) = 0.92	 
y(1,2,1) = 0.53	 y(2,1,1) = 0.47	 
y(0,1,2) = 0.31	 y(1,0,2) = 0.69	 
y(0,2,2) = 0.41	 y(2,0,2) = 0.59	 
y(1,2,2) = 0.41	 y(2,1,2) = 0.59	 
8.614595851984543 4.707447145084723 4
8.614595851984543 3.695434350824185 7
4.707447145084723 3.695434350824185 7
17.00000000000001 14.066928460098692 6
18.000000000000004 14.066928460098692 6
obj:  0.9999999999999999
erro
[(0, 1), (1, 2), (2, 1), (1, 1), (2, 2), (0, 2)]
cliques:  0 mip: 72
C:  25.000000000000007
x(0,0) = 24.00	 x(0,1) = 5.68	 x(0,2) = 17.00	 
x(1,0) = 9.69	 x(1,1) = 5.69	 x(1,2) = 13.35	 
x(2,0) = 21.02	 x(2,1) = 6.45	 x(2,2) = 15.02	 
y(0,1,0) = 0.00	 y(1,0,0) = 1.00	 
y(0,2,0) = -0.00	 y(2,0,0) = 1.00	 
y(1,2,0) = 0.90	 y(2,1,0) = 0.10	 
y(0,1,1) = 0.72	 y(1,0,1) = 0.28	 
y(0,2,1) = 0.54	 y(2,0,1) = 0.46	 
y(1,2,1) = 0.82	 y(2,1,1) = 0.18	 
y(0,1,2) = 0.42	 y(1,0,2) = 0.58	 
y(0,2,2) = 0.64	 y(2,0,2) = 0.36	 
y(1,2,2) = 0.60	 y(2,1,2) = 0.40	 
17.00000000000152 13.352137632960511 7
17.00000000000152 15.016596756739293 6
obj:  1.025510485960404
erro
[(0, 1), (1, 2), (2, 1), (1, 1), (2, 2), (0, 2)]
cliques:  0 mip: 74
C:  25.0
x(0,0) = 24.00	 x(0,1) = 7.33	 x(0,2) = 17.00	 
x(1,0) = 9.36	 x(1,1) = 5.36	 x(1,2) = 15.04	 
x(2,0) = 18.35	 x(2,1) = 5.35	 x(2,2) = 12.35	 
y(0,1,0) = 0.00	 y(1,0,0) = 1.00	 
y(0,2,0) = 0.00	 y(2,0,0) = 1.00	 
y(1,2,0) = 0.88	 y(2,1,0) = 0.12	 
y(0,1,1) = 0.34	 y(1,0,1) = 0.66	 
y(0,2,1) = 0.37	 y(2,0,1) = 0.63	 
y(1,2,1) = 0.83	 y(2,1,1) = 0.17	 
y(0,1,2) = 0.63	 y(1,0,2) = 0.37	 
y(0,2,2) = 0.06	 y(2,0,2) = 0.94	 
y(1,2,2) = 0.58	 y(2,1,2) = 0.42	 
7.330874275783956 5.364054511319973 4
7.330874275783956 5.349992312490325 7
5.364054511319973 5.349992312490325 7
16.999999999999993 15.0383554989615 7
16.999999999999993 12.349992312490324 6
15.0383554989615 12.349992312490324 6
obj:  1.0497360396495234
erro
[(0, 1), (1, 2), (2, 1), (1, 1), (2, 2), (0, 2)]
cliques:  0 mip: 71
C:  25.0
x(0,0) = 24.00	 x(0,1) = 9.49	 x(0,2) = 17.00	 
x(1,0) = 9.81	 x(1,1) = 1.73	 x(1,2) = 12.81	 
x(2,0) = 21.50	 x(2,1) = 5.14	 x(2,2) = 12.14	 
y(0,1,0) = 0.00	 y(1,0,0) = 1.00	 
y(0,2,0) = 0.00	 y(2,0,0) = 1.00	 
y(1,2,0) = 0.47	 y(2,1,0) = 0.53	 
y(0,1,1) = 0.00	 y(1,0,1) = 1.00	 
y(0,2,1) = 0.20	 y(2,0,1) = 0.80	 
y(1,2,1) = 0.85	 y(2,1,1) = 0.15	 
y(0,1,2) = 0.35	 y(1,0,2) = 0.65	 
y(0,2,2) = 0.05	 y(2,0,2) = 0.95	 
y(1,2,2) = 0.71	 y(2,1,2) = 0.29	 
9.491004597392774 5.1426532582130875 7
17.0 12.805242687578616 7
17.0 12.142653258213084 6
12.805242687578616 12.142653258213084 6
obj:  1.0311084921697027
erro
[(0, 1), (1, 2), (2, 1), (2, 2), (0, 2)]
cliques:  0 mip: 77
C:  25.000000000000004
x(0,0) = 24.00	 x(0,1) = 8.09	 x(0,2) = 15.09	 
x(1,0) = 12.10	 x(1,1) = 4.09	 x(1,2) = 15.10	 
x(2,0) = 22.00	 x(2,1) = 4.57	 x(2,2) = 14.15	 
y(0,1,0) = 0.00	 y(1,0,0) = 1.00	 
y(0,2,0) = 0.00	 y(2,0,0) = 1.00	 
y(1,2,0) = 0.50	 y(2,1,0) = 0.50	 
y(0,1,1) = 0.00	 y(1,0,1) = 1.00	 
y(0,2,1) = 0.31	 y(2,0,1) = 0.69	 
y(1,2,1) = 0.85	 y(2,1,1) = 0.15	 
y(0,1,2) = 0.64	 y(1,0,2) = 0.36	 
y(0,2,2) = 0.42	 y(2,0,2) = 0.58	 
y(1,2,2) = 0.49	 y(2,1,2) = 0.51	 
24.00000000000001 22.000000000000014 2
8.09434086993302 4.566035775819535 7
15.094340869933022 14.145666018317938 6
15.103075816682107 14.145666018317938 6
obj:  1.0851864941985845
erro
[(0, 1), (1, 2), (0, 0), (2, 1), (2, 0), (2, 2), (0, 2)]
cliques:  0 mip: 69
C:  25.000000000000004
x(0,0) = 24.00	 x(0,1) = 8.79	 x(0,2) = 15.79	 
x(1,0) = 10.32	 x(1,1) = 2.23	 x(1,2) = 13.68	 
x(2,0) = 22.00	 x(2,1) = 5.62	 x(2,2) = 14.42	 
y(0,1,0) = 0.00	 y(1,0,0) = 1.00	 
y(0,2,0) = 0.00	 y(2,0,0) = 1.00	 
y(1,2,0) = 0.47	 y(2,1,0) = 0.53	 
y(0,1,1) = 0.20	 y(1,0,1) = 0.80	 
y(0,2,1) = 0.27	 y(2,0,1) = 0.73	 
y(1,2,1) = 0.97	 y(2,1,1) = 0.03	 
y(0,1,2) = 0.46	 y(1,0,2) = 0.54	 
y(0,2,2) = 0.38	 y(2,0,2) = 0.62	 
y(1,2,2) = 0.58	 y(2,1,2) = 0.42	 
24.00000000000001 22.000000000000014 2
8.786145011512845 5.616493266981241 7
15.786145011512847 13.67903371414815 7
15.786145011512847 14.42445027521562 6
obj:  1.072538288391651
erro
[(0, 1), (1, 2), (0, 0), (2, 1), (2, 0), (2, 2), (0, 2)]
cliques:  0 mip: 77
C:  25.000000000000004
x(0,0) = 24.00	 x(0,1) = 5.92	 x(0,2) = 13.30	 
x(1,0) = 13.92	 x(1,1) = 6.08	 x(1,2) = 16.92	 
x(2,0) = 19.72	 x(2,1) = 5.60	 x(2,2) = 13.72	 
y(0,1,0) = 0.00	 y(1,0,0) = 1.00	 
y(0,2,0) = 0.00	 y(2,0,0) = 1.00	 
y(1,2,0) = 0.65	 y(2,1,0) = 0.35	 
y(0,1,1) = 0.66	 y(1,0,1) = 0.34	 
y(0,2,1) = 0.53	 y(2,0,1) = 0.47	 
y(1,2,1) = 0.81	 y(2,1,1) = 0.19	 
y(0,1,2) = 0.86	 y(1,0,2) = 0.14	 
y(0,2,2) = 0.59	 y(2,0,2) = 0.41	 
y(1,2,2) = 0.34	 y(2,1,2) = 0.66	 
5.9209363880212456 5.603347168742928 7
6.0825037756626905 5.603347168742928 7
16.91646369335754 13.722632850450161 6
obj:  1.0
erro
[(0, 1), (1, 2), (2, 1), (1, 1), (2, 2), (0, 2)]
cliques:  0 mip: 83
C:  25.0
x(0,0) = 24.00	 x(0,1) = 7.90	 x(0,2) = 14.90	 
x(1,0) = 7.29	 x(1,1) = 3.29	 x(1,2) = 11.92	 
x(2,0) = 20.21	 x(2,1) = 5.88	 x(2,2) = 14.21	 
y(0,1,0) = 0.00	 y(1,0,0) = 1.00	 
y(0,2,0) = 0.00	 y(2,0,0) = 1.00	 
y(1,2,0) = 0.70	 y(2,1,0) = 0.30	 
y(0,1,1) = 0.33	 y(1,0,1) = 0.67	 
y(0,2,1) = 0.36	 y(2,0,1) = 0.64	 
y(1,2,1) = 0.94	 y(2,1,1) = 0.06	 
y(0,1,2) = 0.24	 y(1,0,2) = 0.76	 
y(0,2,2) = 0.46	 y(2,0,2) = 0.54	 
y(1,2,2) = 0.56	 y(2,1,2) = 0.44	 
7.897805331710081 5.884852098919842 7
14.89780533171008 11.92400892444272 7
14.89780533171008 14.207883367821717 6
obj:  0.9999999999999996
erro
[(0, 1), (1, 2), (2, 1), (2, 2), (0, 2)]
cliques:  0 mip: 82
C:  25.000000000000007
x(0,0) = 23.98	 x(0,1) = 6.21	 x(0,2) = 15.83	 
x(1,0) = 10.24	 x(1,1) = 3.75	 x(1,2) = 13.24	 
x(2,0) = 22.14	 x(2,1) = 7.06	 x(2,2) = 14.06	 
y(0,1,0) = 0.00	 y(1,0,0) = 1.00	 
y(0,2,0) = 0.01	 y(2,0,0) = 0.99	 
y(1,2,0) = 0.79	 y(2,1,0) = 0.21	 
y(0,1,1) = 0.56	 y(1,0,1) = 0.44	 
y(0,2,1) = 0.56	 y(2,0,1) = 0.44	 
y(1,2,1) = 0.97	 y(2,1,1) = 0.03	 
y(0,1,2) = 0.40	 y(1,0,2) = 0.60	 
y(0,2,2) = 0.35	 y(2,0,2) = 0.65	 
y(1,2,2) = 0.76	 y(2,1,2) = 0.24	 
23.983845547256017 22.13731284832388 2
6.209078968469946 3.7475166938262454 4
15.830959997998445 13.238206947696957 7
15.830959997998445 14.062193874037858 6
obj:  1.0275140635510438
erro
[(0, 1), (1, 2), (0, 0), (0, 2), (2, 1), (2, 0), (2, 2), (1, 1)]
cliques:  0 mip: 0
iterações: 16 cortes cliques encontrados: 3 mip: 1077 objective:  25.000000000000007
Coin0506I Presolve 65 (-61) rows, 39 (-25) columns and 202 (-86) elements
Clp1000I sum of infeasibilities 3.24924e-06 - average 4.99884e-08, 0 fixed columns
Coin0506I Presolve 65 (0) rows, 39 (0) columns and 202 (0) elements
Clp0029I End of values pass after 39 iterations
Clp0000I Optimal - objective value 15
Clp0000I Optimal - objective value 15
Coin0511I After Postsolve, objective 15, infeasibilities - dual 0 (0), primal 0 (0)
Clp0000I Optimal - objective value 15
Clp0000I Optimal - objective value 15
Clp0000I Optimal - objective value 15
Coin0511I After Postsolve, objective 15, infeasibilities - dual 0 (0), primal 0 (0)
Clp0032I Optimal objective 15 - 0 iterations time 0.012, Presolve 0.00, Idiot 0.00
Coin3009W Conflict graph built in 0.000 seconds, density: 0.147%
